benchmarks_CP/INST_36x36/55/inst36x36_55_14.dzn
S=6;
start=[|
-1,	-1,	33,	-1,	8,	7,	18,	25,	24,	14,	27,	-1,	12,	28,	4,	21,	-1,	5,	17,	16,	29,	34,	26,	20,	-1,	19,	36,	-1,	-1,	3,	35,	-1,	10,	9,	-1,	22|
-1,	22,	-1,	24,	16,	2,	10,	29,	-1,	36,	11,	-1,	25,	-1,	-1,	20,	26,	-1,	23,	12,	-1,	14,	-1,	-1,	33,	-1,	5,	4,	1,	-1,	27,	28,	-1,	-1,	-1,	8|
-1,	5,	12,	10,	18,	-1,	19,	32,	-1,	-1,	-1,	-1,	7,	-1,	11,	-1,	-1,	-1,	-1,	31,	-1,	-1,	-1,	1,	-1,	28,	-1,	-1,	-1,	-1,	33,	20,	-1,	2,	6,	-1|
35,	23,	-1,	1,	-1,	20,	34,	12,	5,	26,	33,	31,	-1,	6,	-1,	-1,	24,	-1,	21,	28,	8,	-1,	15,	27,	13,	7,	-1,	17,	14,	-1,	-1,	-1,	4,	36,	16,	-1|
29,	-1,	6,	-1,	25,	15,	3,	-1,	9,	23,	28,	21,	18,	-1,	-1,	8,	-1,	-1,	-1,	11,	-1,	35,	-1,	4,	-1,	10,	12,	-1,	26,	-1,	-1,	-1,	-1,	-1,	-1,	14|
-1,	28,	19,	-1,	-1,	27,	-1,	-1,	-1,	-1,	8,	15,	9,	14,	16,	-1,	35,	13,	-1,	22,	18,	33,	5,	30,	-1,	11,	32,	-1,	24,	23,	25,	-1,	-1,	3,	-1,	17|
-1,	27,	23,	3,	31,	-1,	-1,	17,	-1,	-1,	12,	-1,	-1,	-1,	-1,	10,	-1,	-1,	-1,	-1,	6,	-1,	34,	24,	19,	16,	-1,	-1,	-1,	-1,	-1,	-1,	-1,	18,	-1,	-1|
19,	15,	34,	5,	2,	8,	23,	1,	10,	35,	-1,	32,	-1,	-1,	6,	4,	-1,	21,	30,	3,	11,	12,	-1,	31,	29,	20,	-1,	-1,	7,	26,	-1,	25,	16,	-1,	-1,	27|
11,	-1,	29,	4,	-1,	33,	2,	27,	-1,	-1,	19,	5,	26,	35,	-1,	-1,	17,	-1,	14,	-1,	22,	16,	1,	-1,	24,	15,	3,	-1,	-1,	-1,	8,	30,	7,	-1,	10,	-1|
-1,	12,	-1,	-1,	6,	-1,	-1,	4,	26,	20,	29,	-1,	-1,	18,	30,	27,	-1,	-1,	-1,	-1,	-1,	-1,	-1,	7,	17,	22,	-1,	9,	-1,	-1,	13,	1,	-1,	-1,	-1,	-1|
-1,	-1,	35,	17,	14,	18,	24,	-1,	21,	-1,	-1,	-1,	33,	-1,	-1,	-1,	32,	29,	-1,	-1,	26,	-1,	10,	36,	4,	6,	-1,	-1,	-1,	-1,	-1,	15,	2,	-1,	34,	-1|
20,	26,	22,	-1,	30,	-1,	11,	15,	-1,	7,	-1,	13,	8,	3,	24,	-1,	2,	28,	35,	-1,	-1,	18,	33,	-1,	-1,	-1,	34,	12,	31,	10,	-1,	5,	-1,	-1,	-1,	21|
-1,	-1,	1,	2,	-1,	10,	21,	-1,	-1,	-1,	-1,	-1,	-1,	9,	36,	35,	30,	-1,	26,	29,	20,	11,	-1,	-1,	-1,	24,	-1,	-1,	-1,	-1,	-1,	-1,	14,	8,	-1,	-1|
-1,	-1,	15,	-1,	17,	-1,	28,	8,	-1,	12,	30,	-1,	-1,	27,	2,	-1,	13,	33,	9,	24,	-1,	-1,	-1,	18,	31,	25,	-1,	19,	20,	6,	21,	32,	26,	-1,	11,	7|
-1,	9,	-1,	29,	-1,	23,	14,	24,	2,	-1,	-1,	22,	-1,	-1,	-1,	26,	20,	1,	27,	-1,	32,	15,	-1,	34,	11,	33,	-1,	16,	-1,	7,	-1,	12,	30,	19,	-1,	-1|
-1,	-1,	30,	11,	19,	-1,	-1,	-1,	32,	-1,	23,	6,	29,	-1,	12,	3,	21,	24,	28,	5,	-1,	8,	-1,	2,	22,	1,	35,	-1,	-1,	-1,	-1,	-1,	-1,	-1,	-1,	36|
33,	24,	-1,	31,	-1,	-1,	-1,	-1,	-1,	16,	-1,	7,	-1,	8,	-1,	-1,	6,	32,	-1,	17,	10,	-1,	-1,	12,	-1,	-1,	-1,	3,	9,	21,	-1,	22,	-1,	-1,	23,	5|
32,	-1,	-1,	-1,	12,	36,	-1,	5,	33,	-1,	1,	27,	-1,	19,	-1,	11,	-1,	-1,	-1,	21,	-1,	-1,	23,	14,	-1,	26,	30,	-1,	34,	17,	-1,	-1,	13,	-1,	-1,	24|
-1,	-1,	2,	27,	-1,	12,	-1,	23,	3,	11,	21,	9,	-1,	16,	-1,	28,	-1,	26,	-1,	30,	24,	6,	25,	-1,	-1,	-1,	29,	34,	4,	-1,	-1,	19,	36,	14,	-1,	-1|
36,	29,	-1,	-1,	11,	3,	20,	13,	-1,	1,	-1,	10,	35,	-1,	15,	25,	31,	14,	33,	34,	-1,	-1,	19,	9,	7,	-1,	6,	32,	-1,	30,	-1,	-1,	-1,	16,	-1,	-1|
23,	6,	-1,	-1,	7,	4,	-1,	-1,	34,	-1,	-1,	-1,	1,	22,	21,	19,	33,	3,	-1,	-1,	2,	-1,	12,	35,	-1,	5,	28,	14,	-1,	-1,	10,	-1,	-1,	20,	-1,	-1|
30,	-1,	8,	-1,	34,	-1,	-1,	2,	29,	-1,	-1,	-1,	27,	13,	-1,	-1,	-1,	11,	36,	10,	14,	-1,	3,	5,	16,	18,	31,	25,	19,	-1,	24,	6,	-1,	-1,	28,	-1|
-1,	-1,	-1,	-1,	9,	32,	6,	-1,	15,	17,	25,	19,	-1,	34,	8,	24,	29,	-1,	-1,	-1,	-1,	7,	-1,	-1,	26,	12,	-1,	22,	13,	35,	3,	-1,	-1,	33,	5,	-1|
-1,	-1,	14,	19,	21,	-1,	-1,	28,	-1,	30,	18,	-1,	-1,	2,	9,	-1,	-1,	6,	-1,	-1,	-1,	13,	20,	29,	-1,	-1,	-1,	11,	3,	-1,	-1,	27,	-1,	-1,	-1,	-1|
-1,	33,	-1,	14,	29,	-1,	13,	10,	8,	-1,	-1,	11,	6,	4,	27,	15,	12,	22,	18,	-1,	7,	-1,	-1,	-1,	30,	-1,	-1,	26,	25,	-1,	-1,	-1,	-1,	34,	1,	-1|
-1,	32,	-1,	8,	22,	30,	29,	31,	7,	-1,	9,	23,	-1,	11,	34,	-1,	36,	-1,	6,	13,	1,	28,	14,	15,	-1,	-1,	-1,	35,	5,	4,	20,	-1,	12,	-1,	19,	-1|
-1,	4,	36,	23,	3,	-1,	-1,	21,	27,	24,	32,	-1,	-1,	-1,	-1,	-1,	28,	16,	19,	-1,	-1,	-1,	-1,	-1,	-1,	2,	-1,	-1,	22,	-1,	-1,	9,	11,	-1,	-1,	15|
2,	10,	-1,	-1,	-1,	11,	-1,	26,	-1,	-1,	-1,	-1,	3,	-1,	23,	-1,	19,	25,	32,	-1,	34,	30,	-1,	22,	-1,	-1,	7,	-1,	28,	12,	5,	-1,	-1,	21,	8,	-1|
6,	-1,	-1,	-1,	15,	-1,	5,	-1,	-1,	-1,	34,	28,	32,	21,	29,	-1,	7,	20,	-1,	-1,	-1,	17,	8,	10,	3,	13,	1,	-1,	33,	-1,	-1,	-1,	-1,	-1,	-1,	2|
-1,	34,	-1,	20,	-1,	21,	-1,	19,	-1,	-1,	15,	-1,	-1,	26,	5,	-1,	-1,	8,	3,	-1,	-1,	-1,	11,	-1,	-1,	31,	-1,	36,	29,	-1,	-1,	-1,	28,	13,	-1,	-1|
8,	18,	-1,	7,	10,	6,	-1,	22,	-1,	15,	-1,	-1,	-1,	24,	-1,	34,	-1,	35,	31,	-1,	33,	-1,	2,	11,	25,	-1,	-1,	1,	-1,	27,	36,	-1,	-1,	29,	13,	-1|
22,	3,	-1,	30,	13,	-1,	4,	-1,	-1,	-1,	26,	-1,	17,	-1,	18,	-1,	8,	2,	16,	14,	35,	-1,	27,	28,	9,	32,	-1,	29,	6,	15,	12,	11,	34,	23,	20,	-1|
16,	-1,	-1,	12,	1,	24,	27,	-1,	28,	-1,	20,	-1,	-1,	15,	26,	29,	25,	30,	5,	7,	-1,	-1,	17,	3,	34,	-1,	-1,	-1,	11,	8,	-1,	-1,	-1,	32,	-1,	-1|
34,	-1,	-1,	15,	4,	-1,	17,	-1,	-1,	-1,	24,	-1,	-1,	33,	-1,	22,	16,	9,	12,	-1,	-1,	29,	-1,	8,	23,	3,	14,	-1,	10,	2,	18,	21,	-1,	35,	25,	28|
21,	2,	-1,	33,	-1,	-1,	30,	9,	-1,	29,	-1,	-1,	-1,	-1,	-1,	-1,	27,	12,	1,	6,	-1,	22,	13,	25,	-1,	35,	-1,	24,	-1,	28,	-1,	-1,	8,	5,	15,	16|
-1,	-1,	28,	35,	20,	29,	12,	33,	14,	8,	2,	-1,	21,	-1,	19,	-1,	11,	-1,	34,	18,	-1,	-1,	9,	32,	-1,	-1,	-1,	-1,	16,	-1,	1,	7,	24,	-1,	22,	3|];
