benchmarks/INST_36x36/55/inst36x36_55_14.txt
6
1
31	11	33	-1	8	-1	-1	-1	-1	14	-1	2	-1	-1	-1	21	1	5	17	16	-1	34	26	20	6	-1	36	30	-1	3	-1	23	10	-1	-1	-1
-1	22	17	24	-1	-1	10	29	13	36	11	-1	-1	30	32	20	26	15	23	12	3	14	-1	-1	33	34	-1	-1	1	-1	27	-1	19	-1	21	8
-1	5	-1	10	18	34	19	32	-1	4	22	17	-1	29	11	23	-1	27	25	31	13	-1	-1	1	-1	-1	9	8	-1	-1	33	20	-1	2	6	26
35	-1	3	1	-1	-1	-1	12	5	26	33	31	22	6	-1	2	-1	19	-1	28	8	-1	-1	27	-1	-1	25	-1	-1	29	11	-1	4	36	16	-1
29	-1	6	-1	25	-1	-1	16	-1	-1	-1	21	-1	31	-1	8	34	17	-1	11	19	35	-1	-1	-1	10	-1	-1	-1	22	7	13	5	1	-1	-1
-1	28	-1	21	26	-1	7	-1	1	6	-1	15	-1	14	16	36	35	13	-1	22	-1	-1	-1	30	2	11	-1	31	24	-1	25	-1	29	-1	12	-1
13	-1	23	-1	31	-1	22	17	-1	-1	-1	-1	-1	20	25	-1	-1	7	-1	-1	6	-1	34	-1	19	-1	-1	-1	35	5	-1	14	33	18	26	-1
19	-1	-1	5	-1	8	-1	1	-1	-1	14	32	13	36	-1	4	-1	-1	30	-1	-1	-1	-1	31	29	20	-1	-1	7	26	17	25	16	24	-1	-1
11	21	-1	-1	36	-1	2	27	18	-1	-1	-1	26	35	-1	-1	17	-1	-1	9	-1	16	-1	-1	24	-1	3	-1	-1	25	-1	30	7	6	-1	-1
24	12	-1	-1	-1	28	16	-1	26	20	-1	-1	-1	-1	30	-1	14	34	15	-1	5	32	21	-1	-1	-1	23	-1	-1	36	13	1	3	11	31	-1
-1	16	35	17	14	18	24	3	21	28	31	8	33	5	1	-1	-1	29	-1	23	26	25	-1	36	4	-1	-1	27	-1	13	19	-1	2	22	-1	-1
20	26	22	32	-1	9	11	15	25	-1	-1	-1	8	3	24	-1	2	28	-1	27	-1	18	33	-1	1	-1	-1	12	31	10	-1	5	23	-1	-1	21
25	7	1	2	-1	10	-1	18	17	19	4	3	-1	9	-1	35	-1	-1	26	29	20	11	22	-1	-1	-1	-1	5	-1	-1	-1	-1	14	8	27	34
-1	14	15	34	-1	22	28	-1	-1	12	-1	-1	23	27	2	-1	-1	-1	-1	24	-1	-1	16	18	-1	25	4	-1	20	6	-1	32	-1	10	11	-1
18	9	21	-1	5	-1	14	24	2	10	-1	-1	28	-1	-1	-1	20	1	27	-1	-1	15	-1	-1	11	33	-1	16	36	7	-1	-1	-1	-1	-1	31
26	-1	-1	-1	-1	16	9	34	-1	31	23	-1	-1	7	12	-1	-1	24	28	5	25	-1	-1	2	-1	-1	-1	10	-1	14	15	33	-1	-1	18	36
-1	-1	4	-1	27	35	26	-1	20	16	36	7	34	8	14	18	6	32	13	-1	10	-1	30	12	-1	-1	-1	-1	-1	-1	-1	-1	-1	25	-1	-1
-1	8	-1	6	12	-1	-1	5	-1	-1	1	-1	16	-1	22	11	4	-1	7	21	31	3	23	14	-1	-1	-1	-1	34	17	-1	35	-1	28	-1	24
15	1	-1	-1	33	-1	31	-1	3	11	-1	-1	5	-1	7	-1	-1	26	-1	-1	-1	-1	-1	17	10	-1	-1	-1	-1	-1	32	19	36	-1	35	-1
-1	29	-1	28	11	3	20	13	4	1	5	10	-1	12	15	-1	-1	-1	-1	-1	-1	-1	19	9	7	21	-1	32	2	30	-1	8	22	-1	-1	18
23	-1	13	-1	7	4	-1	36	-1	-1	-1	24	1	22	-1	19	-1	3	-1	-1	2	-1	12	-1	-1	5	-1	14	17	-1	-1	26	25	20	-1	29
-1	35	-1	-1	34	-1	33	2	-1	-1	-1	-1	27	13	-1	17	-1	11	36	10	14	-1	3	-1	-1	18	31	-1	19	-1	-1	-1	-1	-1	28	4
10	-1	-1	16	-1	-1	-1	14	15	17	-1	19	30	-1	8	24	-1	36	4	1	28	-1	-1	-1	26	12	-1	22	13	-1	3	2	-1	33	-1	11
-1	25	-1	19	-1	17	-1	-1	-1	-1	-1	-1	4	2	9	32	-1	6	-1	-1	-1	-1	-1	-1	36	23	-1	11	-1	33	-1	27	-1	-1	7	1
28	33	16	14	29	-1	-1	-1	8	-1	17	11	6	-1	-1	15	12	-1	-1	36	-1	-1	-1	-1	30	9	20	26	-1	-1	-1	24	-1	-1	-1	23
17	-1	25	8	-1	30	29	31	7	2	9	23	-1	11	34	33	-1	-1	-1	13	1	-1	14	15	-1	-1	16	35	5	4	20	-1	-1	26	19	10
-1	4	-1	23	-1	13	25	21	27	24	-1	20	-1	17	-1	31	28	16	19	-1	-1	5	29	26	-1	2	18	-1	22	34	-1	9	11	-1	14	15
-1	-1	-1	9	-1	-1	-1	-1	16	33	-1	-1	3	1	-1	-1	19	-1	-1	20	34	30	31	22	14	-1	7	-1	-1	12	-1	29	-1	-1	8	-1
6	-1	-1	-1	-1	31	-1	30	-1	-1	34	-1	32	-1	29	14	-1	-1	-1	-1	-1	-1	-1	-1	3	13	1	23	33	11	16	-1	-1	27	4	2
-1	34	-1	-1	-1	21	-1	19	6	18	-1	14	2	26	-1	-1	9	8	-1	4	-1	-1	11	-1	32	31	10	-1	29	24	22	17	-1	13	-1	25
8	-1	-1	-1	-1	6	-1	-1	-1	-1	-1	-1	14	-1	28	34	5	35	31	-1	33	-1	-1	11	25	-1	-1	1	-1	27	36	-1	-1	-1	-1	9
-1	-1	-1	30	-1	25	4	7	31	-1	26	36	-1	10	18	1	8	-1	16	14	-1	24	27	-1	-1	32	19	29	-1	15	-1	-1	34	23	-1	33
-1	36	-1	-1	-1	-1	27	35	28	13	20	-1	31	15	-1	29	-1	30	5	-1	21	23	17	-1	34	4	22	33	11	8	-1	-1	6	32	-1	-1
-1	31	32	15	4	19	-1	-1	11	5	-1	1	-1	33	-1	22	-1	9	12	-1	30	-1	-1	8	-1	3	-1	7	10	2	-1	21	-1	-1	25	-1
-1	2	-1	33	23	-1	-1	9	19	29	10	-1	-1	32	-1	-1	-1	-1	1	6	4	22	-1	-1	20	35	-1	24	-1	-1	-1	-1	-1	-1	-1	-1
27	17	28	35	-1	29	12	-1	14	8	2	25	-1	-1	-1	-1	-1	4	34	18	-1	-1	9	-1	5	36	-1	13	-1	-1	1	7	-1	30	22	-1
